ndtset 1
xcart
  4.649999329   0.647110749  25.966924309
 4.649999331   0.058257913  23.933471206
 6.974999152   6.608080086  23.483258854
 6.974999154   4.130666585  22.885684957
 4.649999329   2.626484881  22.435586871
 4.649999329   2.037458819  20.402154147



chksymbreak 0
chkprim     1 
acell  4.393612923 7.609926556 35
rprim      0.8660254037844385 -0.5 0.0 
                 0.0           1.0 0.0 
                 0.0           0.0 1.0

ntypat      2
znucl       1   6

natom     6
typat     1*1 4*2 1*1

so_psp         2 2
nspinor        2 2

nsppol         1
 

ecut          55


diemac       12



nstep1         200
prtwf1         0 
prtden1        1
toldfe1        1.0d-12
nshiftk1       1
shiftk1        0. 0. 0.5
ngkpt1        8 8 2

prtvol -1
