Unit cells


##### alt:

#Definition of the unit cell
acell  4.393612923 7.609926556 35
rprim      0.8660254037844385 -0.5 0.0 
                 0.0           1.0 0.0 
                 0.0           0.0 1.0

#Definition of the atom types
ntypat      2
znucl       1   6
                         

#Definition of the atoms
natom     6
typat     1*1 4*2 1*1
xcart
 4.649999329   0.647110749  25.966924309
 4.649999331   0.058257913  23.933471206
 6.974999152   6.608080086  23.483258854
 6.974999154   4.130666585  22.885684957
 4.649999329   2.626484881  22.435586871
 4.649999329   2.037458819  20.402154147






##### up:

#Definition of the unit cell
acell  4.649999696 8.054035318 30
rprim      0.8660254037844385 -0.5 0.0 
                 0.0           1.0 0.0 
                 0.0           0.0 1.0

#Definition of the atom types
ntypat      2
znucl       1   6
                         

#Definition of the atoms
natom       6
typat       1*1 1*1  4*2
xcart
 -0.0000004500   0.001295619  25.719423746
  2.3250097760   4.025098686  25.719040070
 -0.0000004500   0.004159945  23.407634295
 -0.0000004500   2.681215349  22.969636067
  2.3249742340   4.029801762  23.408608492
  2.3250023170   6.706652267  22.953013267


