ndtset 1
xcart
  4.649999329   2.037458819  20.402154147
 4.649999329   2.626484881  22.435586871
 6.974999154   4.130666585  22.885684957
 6.974999152   6.608080086  23.483258854
 4.649999331   0.058257913  23.933471206
 4.649999329   0.647110749  25.966924309




chkprim     1 
acell  4.393612923 7.609926556 35
rprim      0.8660254037844385 -0.5 0.0 
                 0.0           1.0 0.0 
                 0.0           0.0 1.0

ntypat    2 
znucl     1 6 

natom     6
typat     1*1 4*2 1*1 

so_psp         2 2
nspinor        2 2
toldfe1        1.0d-6
kptopt1        1

nshiftk1 1 
shiftk1 0.0 0.0 0.5 
nsppol         1
 
ngkpt1   7 7 7


ecut   65


diemac       12.0



nstep1              200
prtwf1              1 
prtden1             0


prtvol -1
