ndtset 1
xcart
  -0.0000004500   0.001295619  25.719423746
  2.3250097760   4.025098686  25.719040070
 -0.0000004500   0.004159945  23.407634295
 -0.0000004500   2.681215349  22.969636067
  2.3249742340   4.029801762  23.408608492
  2.3250023170   6.706652267  22.953013267
  


chksymbreak 0
chkprim     1 
acell  4.649999696 8.054035318 30
rprim      0.8660254037844385 -0.5 0.0 
                 0.0           1.0 0.0 
                 0.0           0.0 1.0

ntypat      2
znucl       1   6

natom       6
typat       1*1 1*1  4*2

so_psp         2 2
nspinor        2 2

nsppol         1


ecut           40


diemac       12



nstep1         200
prtwf1         0 
prtden1        1
toldfe1        1.0d-12
nshiftk1       1
shiftk1        0.0 0.0 0.5
ngkpt1          8 8 2

prtvol -1
